c Output_time 26.03.2020 18:15:24_+0100 1585242924942111214
c ** Program information **
c program_name                          "QBRG_debug"
c version                               "0.3.20"
c date                                  "25.3.2020"
c gid_id                                "673970833836058123f633335630c185360d632e"
c author                                "Oliver Kullmann"
c url                                   "https://github.com/OKullmann/oklibrary/blob/master/Satisfiability/Transformers/Generators/Random/QBRG.cpp"
c ** Machine information **
c machine_name                          "chyna-Lenovo-G50-70"
c bogomips                              3791.08
c ** Compilation information **
c compiler_version                      "g++ 7.5.0"
c compilation_date                      "Mar_26_2020 11:16:30"
c compilation_options                   "--std=c++17 -pedantic -fmax-errors=5 -Wall -Wextra -g -D_GLIBCXX_DEBUG"
c NDEBUG                                0
c OPTIMIZE                              0
c ** Parameters **
c command-line                          "./QBRG_debug" "a40 e40 a40 40" "508*1,1|2-2,1|3-3,1|4-4,1" "" "1,t" ""
c output                                "QuBlRaGe_160_508_1585242924941940491.qdimacs"
c options                               "filtered,renamed"
c num_quantifier_blocks                 4
c  quantifier_blocks                    1:a1-40 2:e41-80 3:a81-120 4:e121-160
c num_clause-blocks                     1
c  clause-blocks                        508 * {1-40,1,1/2} | {41-80,1,1/2} | {81-120,1,1/2} | {121-160,1,1/2}
c num_e-seeds                           37+2=39
c  e-seeds                              1 0 1 0 5 160 2 40 0 40 1 40 0 40 1 508 4 1 1 1 1 2 2 2 1 1 2 3 3 1 1 2 4 4 1 1 2 1 1585242924941939611
p cnf 160 508
a 1 2 3 4 5 6 7 8 9 10 11 12 13 14 15 16 17 18 19 20 21 22 23 24 25 26 27 28 29 30 31 32 33 34 35 36 37 38 39 40 0
e 41 42 43 44 45 46 47 48 49 50 51 52 53 54 55 56 57 58 59 60 61 62 63 64 65 66 67 68 69 70 71 72 73 74 75 76 77 78 79 80 0
a 81 82 83 84 85 86 87 88 89 90 91 92 93 94 95 96 97 98 99 100 101 102 103 104 105 106 107 108 109 110 111 112 113 114 115 116 117 118 119 120 0
e 121 122 123 124 125 126 127 128 129 130 131 132 133 134 135 136 137 138 139 140 141 142 143 144 145 146 147 148 149 150 151 152 153 154 155 156 157 158 159 160 0
17 -53 88 -121 0
17 -67 96 -121 0
10 71 100 -121 0
26 -70 101 -121 0
22 -70 -102 -121 0
30 -59 109 -121 0
11 -67 -82 121 0
40 -41 -89 121 0
34 -41 -93 121 0
-36 54 97 121 0
8 59 103 121 0
-12 52 108 121 0
-10 43 117 121 0
-36 -42 119 121 0
30 77 -104 -122 0
1 79 -107 -122 0
-10 53 114 -122 0
-20 77 100 122 0
-7 -63 -103 122 0
34 42 103 122 0
39 -71 103 122 0
-36 -47 106 122 0
2 -60 -111 122 0
-21 -62 111 122 0
-26 62 -81 -123 0
-12 57 -83 -123 0
-5 -64 85 -123 0
9 -72 -86 -123 0
-20 -49 -94 -123 0
-24 -59 -104 -123 0
-29 -50 105 -123 0
27 70 110 -123 0
-12 -75 93 123 0
-24 -65 95 123 0
-25 74 102 123 0
8 -54 -112 123 0
-21 63 114 123 0
-34 -54 -115 123 0
17 -57 -88 -124 0
-8 58 89 -124 0
-19 48 92 -124 0
34 72 -100 -124 0
-29 -76 103 -124 0
34 56 -84 124 0
38 -50 84 124 0
-1 42 -96 124 0
-21 56 99 124 0
-12 43 110 124 0
-22 48 -82 -125 0
2 -74 84 -125 0
26 -71 89 -125 0
-18 -63 98 -125 0
-26 -59 -99 -125 0
-21 -55 112 -125 0
-18 -67 -115 -125 0
-34 -79 118 -125 0
-2 -72 82 125 0
-22 -70 84 125 0
3 -59 -87 125 0
-19 -51 91 125 0
-38 79 -94 125 0
-8 61 85 -126 0
22 -62 -89 -126 0
35 54 97 -126 0
-34 54 -102 -126 0
-6 -43 -103 -126 0
2 -54 113 -126 0
35 68 116 -126 0
-25 65 84 126 0
-6 68 -85 126 0
-5 80 92 126 0
20 -50 -105 126 0
13 48 110 126 0
9 64 115 126 0
-15 61 84 -127 0
1 47 -85 -127 0
26 -53 85 -127 0
-6 -44 -87 -127 0
26 47 88 -127 0
-37 58 -89 -127 0
11 -52 -94 -127 0
17 -65 -95 -127 0
3 80 105 -127 0
39 66 -109 -127 0
23 -52 113 -127 0
11 -77 -84 127 0
15 43 -86 127 0
-22 68 86 127 0
18 -59 89 127 0
24 -70 98 127 0
-25 -66 -106 127 0
39 64 110 127 0
-14 72 -113 127 0
-4 45 -114 127 0
-19 -50 117 127 0
40 47 -119 127 0
2 -60 -87 -128 0
40 -71 -88 -128 0
-15 -65 88 -128 0
20 79 -90 -128 0
36 -63 93 -128 0
-2 -80 107 -128 0
13 -54 85 128 0
-5 48 -89 128 0
-24 42 -100 128 0
-25 -51 105 128 0
8 -70 110 128 0
-19 -50 111 128 0
37 80 116 128 0
28 -72 94 -129 0
1 54 96 -129 0
-16 -77 108 -129 0
-12 -66 111 -129 0
-16 54 -116 -129 0
40 -63 -91 129 0
14 71 101 129 0
-27 78 -102 129 0
29 73 105 129 0
10 -50 107 129 0
17 74 119 129 0
9 51 82 -130 0
-37 45 84 -130 0
8 -58 -85 -130 0
-10 52 -92 -130 0
-17 -47 -96 -130 0
-32 -75 -96 -130 0
35 -55 -106 -130 0
6 57 -106 -130 0
37 60 110 -130 0
8 -54 -85 130 0
31 67 89 130 0
-33 72 -81 -131 0
31 -75 83 -131 0
-7 -44 93 -131 0
-10 78 -103 -131 0
13 -69 104 -131 0
20 65 115 -131 0
-12 -49 -120 -131 0
-40 66 82 131 0
2 -44 -83 131 0
16 -64 87 131 0
-19 -78 92 131 0
40 54 -106 131 0
-26 -51 -113 131 0
26 42 115 131 0
13 -48 -117 131 0
-32 59 -81 -132 0
35 -56 81 -132 0
-6 55 -82 -132 0
-27 53 -85 -132 0
27 -77 -86 -132 0
-26 54 -89 -132 0
-2 56 91 -132 0
7 66 99 -132 0
18 41 -104 -132 0
-30 68 -116 -132 0
-14 -50 117 -132 0
30 -69 85 132 0
30 66 89 132 0
-10 61 -91 132 0
27 58 91 132 0
-39 -64 95 132 0
-7 51 -104 132 0
38 48 -109 132 0
-29 -64 92 -133 0
-14 49 107 -133 0
-35 -65 -116 -133 0
-28 73 -119 -133 0
30 -78 83 133 0
-34 -46 89 133 0
39 -49 -111 133 0
-40 -56 -120 133 0
-30 -62 85 -134 0
-23 62 93 -134 0
-31 67 -103 -134 0
20 -76 105 -134 0
25 65 106 -134 0
-29 58 111 -134 0
-30 47 -112 -134 0
29 42 84 134 0
21 50 -88 134 0
36 -62 89 134 0
-28 -71 106 134 0
22 64 -113 134 0
-22 50 88 -135 0
25 73 -90 -135 0
-17 -79 92 -135 0
-1 60 96 -135 0
40 -44 -97 -135 0
-4 -59 -99 -135 0
-28 46 99 -135 0
18 62 99 -135 0
-24 -62 114 -135 0
-14 -70 -116 135 0
34 43 -96 -136 0
-23 -48 103 -136 0
24 -60 -111 -136 0
-21 -50 -117 -136 0
-36 -72 -91 136 0
-36 55 92 136 0
29 -63 -93 136 0
8 -65 -96 136 0
-16 59 -108 136 0
38 78 -111 136 0
12 -70 -114 136 0
23 70 -115 136 0
-19 -75 -115 136 0
13 73 115 136 0
2 -47 85 -137 0
25 57 86 -137 0
33 -75 101 -137 0
30 -44 104 -137 0
15 -44 105 -137 0
32 -70 -111 -137 0
-13 46 116 -137 0
34 55 -117 -137 0
-31 77 -119 -137 0
3 80 -81 137 0
38 -65 88 137 0
18 42 98 137 0
30 57 98 137 0
-12 -71 -113 137 0
1 -62 116 137 0
18 56 84 -138 0
11 49 85 -138 0
31 66 -102 -138 0
-2 44 -114 -138 0
26 45 94 138 0
-27 62 -102 138 0
22 -75 -103 138 0
-22 66 112 138 0
-2 65 -113 138 0
39 79 -118 138 0
-31 50 -84 -139 0
-33 -51 85 -139 0
21 73 -88 -139 0
-24 78 89 -139 0
22 -69 92 -139 0
2 62 -94 -139 0
-7 64 116 -139 0
-24 61 98 139 0
-22 56 -108 139 0
-16 72 109 139 0
14 -60 -114 139 0
-1 -75 82 -140 0
-34 -73 87 -140 0
-1 72 -117 -140 0
-20 -78 -119 -140 0
-31 43 -84 140 0
-3 -80 85 140 0
-36 53 87 140 0
-37 -76 -91 140 0
40 -68 91 140 0
-19 45 95 140 0
-22 73 112 140 0
-22 -56 -120 140 0
-25 59 -83 -141 0
-39 72 93 -141 0
10 -61 101 -141 0
-15 63 102 -141 0
36 -53 109 -141 0
34 47 115 -141 0
-13 51 116 -141 0
10 -78 119 -141 0
-16 44 82 141 0
27 -52 -108 141 0
22 -64 -112 141 0
7 -60 -114 141 0
1 66 -117 141 0
-37 -63 117 141 0
28 -45 85 -142 0
-3 -46 -89 -142 0
14 48 -94 -142 0
-14 -62 -102 -142 0
8 41 -116 -142 0
-18 66 -120 -142 0
-23 78 -84 142 0
-27 -79 -87 142 0
33 -45 89 142 0
-37 65 -96 142 0
11 66 -97 142 0
-8 -41 97 142 0
-8 41 100 142 0
-12 -57 102 142 0
-39 73 106 142 0
-19 42 110 142 0
22 -77 112 142 0
14 -48 -118 142 0
-5 64 -86 -143 0
-38 -67 -86 -143 0
2 -49 89 -143 0
-25 63 -90 -143 0
9 44 101 -143 0
34 80 108 -143 0
-10 62 -117 -143 0
-10 41 -93 143 0
36 -72 -93 143 0
-2 49 -99 143 0
24 79 113 143 0
30 -44 -115 143 0
19 78 119 143 0
-2 -48 -102 -144 0
15 -51 -105 -144 0
35 -69 105 -144 0
-14 -59 108 -144 0
-27 77 -114 -144 0
-15 58 114 -144 0
28 -66 -118 -144 0
-4 55 120 -144 0
-4 43 -93 144 0
-30 72 -96 144 0
-20 77 99 144 0
2 54 -100 144 0
21 66 -109 144 0
-24 -59 115 144 0
-32 -80 -83 -145 0
34 -54 87 -145 0
-19 72 90 -145 0
-6 -50 -91 -145 0
-33 64 101 -145 0
-36 49 -108 -145 0
-34 71 -108 -145 0
-20 78 110 -145 0
-12 -68 114 -145 0
-4 71 83 145 0
5 51 -103 145 0
-23 -47 103 145 0
15 -68 108 145 0
-30 -46 -84 -146 0
-17 72 89 -146 0
-38 -71 102 -146 0
40 66 -107 -146 0
20 -60 -119 -146 0
19 -65 120 -146 0
-40 -65 -83 146 0
-30 72 -95 146 0
6 77 107 146 0
-14 -75 -108 146 0
29 73 109 146 0
-15 -56 -112 146 0
-2 -73 100 -147 0
25 -68 102 -147 0
25 47 -104 -147 0
-15 51 -119 -147 0
26 -51 87 147 0
30 63 -88 147 0
-20 44 -90 147 0
-39 77 -104 147 0
30 59 116 147 0
-35 -64 -81 -148 0
-10 -76 -82 -148 0
-39 -77 -83 -148 0
35 41 94 -148 0
-3 66 -102 -148 0
29 -44 -110 -148 0
-33 43 -117 -148 0
5 -80 117 -148 0
35 -60 -120 -148 0
25 59 85 148 0
6 -52 87 148 0
5 63 92 148 0
-34 47 -95 148 0
-37 72 103 148 0
27 62 -117 148 0
30 46 85 -149 0
21 -49 -89 -149 0
-7 -50 99 -149 0
6 48 113 -149 0
23 -55 114 -149 0
-28 -77 118 -149 0
27 42 81 149 0
-38 -57 81 149 0
32 -71 82 149 0
-24 -70 98 149 0
32 77 99 149 0
20 -79 110 149 0
39 -54 -115 149 0
-28 80 -82 -150 0
16 -60 -83 -150 0
1 -77 -98 -150 0
-24 75 101 -150 0
10 64 116 -150 0
-13 76 -117 -150 0
10 54 118 -150 0
9 -43 -85 150 0
12 -52 86 150 0
-19 65 89 150 0
13 60 90 150 0
-34 76 -100 150 0
-11 -71 -101 150 0
27 58 -103 150 0
-13 -56 107 150 0
-40 -77 109 150 0
30 -78 110 150 0
-4 -47 120 150 0
-28 64 -85 -151 0
-8 -79 -85 -151 0
21 79 -87 -151 0
10 70 93 -151 0
-30 -45 95 -151 0
20 44 101 -151 0
-32 44 -107 -151 0
14 59 -112 -151 0
-13 54 114 -151 0
-3 72 99 151 0
-2 -71 106 151 0
18 -51 -116 151 0
-7 -41 120 151 0
23 -43 -81 -152 0
-28 -72 -82 -152 0
24 80 -87 -152 0
-12 -57 91 -152 0
28 77 -93 -152 0
25 -64 -120 -152 0
7 -66 120 -152 0
-14 52 -81 152 0
24 73 -86 152 0
19 68 87 152 0
18 69 88 152 0
27 -62 -100 152 0
-28 -61 -108 152 0
-34 55 -94 -153 0
-28 -56 -98 -153 0
-20 51 98 -153 0
-31 56 84 153 0
34 80 -88 153 0
9 -58 -92 153 0
-2 79 92 153 0
-36 49 100 153 0
-6 -76 104 153 0
27 67 107 153 0
-34 74 113 153 0
-38 46 87 -154 0
-40 65 112 -154 0
18 46 -118 -154 0
-35 -79 118 -154 0
18 70 81 154 0
-14 44 -98 154 0
18 -57 -98 154 0
35 61 98 154 0
-10 -50 -100 154 0
-8 -64 101 154 0
26 49 -110 154 0
-2 -57 114 154 0
11 48 97 -155 0
16 -41 114 -155 0
29 -55 114 -155 0
22 44 89 155 0
-10 75 -91 155 0
24 47 92 155 0
-38 41 -100 155 0
30 62 -107 155 0
28 78 108 155 0
-10 -41 85 -156 0
6 -71 -87 -156 0
-5 -42 81 156 0
6 -48 89 156 0
9 -63 -93 156 0
-30 -71 98 156 0
-2 -71 107 156 0
1 54 -113 156 0
35 65 115 156 0
-38 68 82 -157 0
24 42 -86 -157 0
5 76 -94 -157 0
37 -44 99 -157 0
-28 59 112 -157 0
-14 47 84 157 0
18 54 86 157 0
10 -55 -87 157 0
9 -76 87 157 0
-11 -66 -88 157 0
17 -59 98 157 0
37 44 -94 -158 0
14 77 -94 -158 0
2 -69 -96 -158 0
6 -73 96 -158 0
17 49 -104 -158 0
10 60 -107 -158 0
-38 -80 -82 158 0
-19 -64 -85 158 0
-1 43 108 158 0
19 -80 -116 158 0
35 -71 116 158 0
34 57 -119 158 0
-26 -78 -120 158 0
-21 55 -81 -159 0
10 67 -101 -159 0
28 -73 -104 -159 0
22 55 104 -159 0
-2 -77 -107 -159 0
-1 -51 -109 -159 0
-7 50 92 159 0
27 -60 92 159 0
-24 -62 99 159 0
-29 47 -100 159 0
34 51 -104 159 0
18 -57 104 159 0
-26 -51 -112 159 0
-6 53 -120 159 0
4 -47 108 -160 0
32 53 -118 -160 0
-12 71 119 -160 0
-36 -64 -103 160 0
-18 -54 -116 160 0
25 -58 119 160 0
-12 -61 119 160 0
31 -76 120 160 0
